1283815
36, 12, 65, 92, 81, 108, 47, 71, 105, 102, 21, 2, 51, 29, 52, 34, 45, 82, 101, 98, 35, 1, 5, 9, 77, 19, 62, 96, 87, 76, 99, 97, 89, 91, 11, 49, 84, 33, 22, 53, 17, 42, 60, 55, 68, 40, 8, 28, 50, 73, 93, 106, 7, 88, 18, 74, 56, 59, 46, 94, 107, 16, 66, 10, 64, 41, 38, 37, 26, 72, 57, 75, 86, 27, 69, 70, 14, 39, 31, 54, 104, 58, 100, 15, 23, 24, 109, 90, 79, 67, 4, 103, 30, 6, 95, 32, 61, 85, 43, 44, 20, 63, 3, 83, 25, 80, 48, 13, 78
